s td 26 6 30
b 1 2 22
b 2 3 28
b 3 5 19
b 4 7 29
b 5 17 18
b 6 9 19
b 7 9 16
b 8 20 21
b 9 25 26
b 10 8 27 28
b 11 23 27 28
b 12 10 13 16
b 13 4 21 22
b 14 1 15 24
b 15 1 26 27
b 16 16 22 23 30
b 17 1 11 13 16 23 29
b 18 13 16 22 23 29
b 19 4 13 22 29
b 20 1 11 13 15 16 23
b 21 11 14 15 16
b 22 11 13 17 29
b 23 1 11 13 16 23 27
b 24 29
b 25 6
b 26 12
1 18
1 25
1 26
2 11
3 6
4 24
5 22
6 7
7 17
8 13
9 15
10 11
11 23
12 17
13 19
14 20
15 23
16 18
17 24
17 18
17 20
17 22
17 23
18 19
20 21
